p cnf 28 68
a 20 12 0
e 1 2 3 4 5 6 7 8 9 10 11 13 14 15 16 17 18 19 21 22 23 24 25 26 27 28 0
-4 2 0
-4 -3 0
-2 3 4 0
1 4 -5 0
-1 -4 -5 0
1 -4 5 0
-1 4 5 0
-9 -7 0
-9 8 0
7 -8 9 0
-6 -9 -10 0
6 9 -10 0
-6 9 10 0
6 -9 10 0
-12 11 0
-12 7 0
-11 -7 12 0
-13 -9 0
-13 -12 0
9 12 13 0
-14 10 0
-14 13 0
-10 -13 14 0
-15 -3 0
-15 6 0
3 -6 15 0
-18 2 0
-18 -17 0
-2 17 18 0
16 -18 -19 0
-16 18 -19 0
16 18 19 0
-16 -18 19 0
-4 -19 -20 0
4 19 -20 0
-4 19 20 0
4 -19 20 0
21 15 0
21 -20 0
-15 20 -21 0
-14 -21 -22 0
14 21 -22 0
-14 21 22 0
14 -21 22 0
-23 -8 0
-23 16 0
8 -16 23 0
-25 24 0
-25 24 0
-24 25 0
-23 25 -26 0
23 -25 -26 0
-23 -25 26 0
23 25 26 0
-27 -22 0
-27 26 0
22 -26 27 0
5 -27 -28 0
-5 27 -28 0
5 27 28 0
-5 -27 28 0
-5 10 18 17 28 3 0
10 -20 11 1 -26 19 0
28 8 4 0
-9 26 -8 0
-25 -15 0
-8 -18 23 5 -16 10 -28 0
28 0
